\ENCODING=ISO-8859-1
\Problem name: instances

Maximize
 obj:
Subject To
 c1: 358 x1 + 925 x2 + 394 x3 + 364 x4 + 74 x5 + 933 x6 + 901 x7 + 277 x8
     + 59 x9 + 829 x10 + 787 x11 + 6 x12 + 963 x13 + 327 x14 + 712 x15
     + 786 x16 + 349 x17 + 192 x18 + 876 x19 + 448 x20 + 979 x21 + 181 x22
     + 918 x23 + 474 x24 + 619 x25 + 173 x26 + 643 x27 + 498 x28 + 677 x29
     + 772 x30 + 517 x31 + 34 x32 + 696 x33 + 910 x34 + 397 x35 + 769 x36
     + 842 x37 + 297 x38 + 45 x39 + 900 x40 + 126 x41 + 832 x42 + 906 x43
     + 88 x44 + 159 x45 + 617 x46 + 874 x47 + 507 x48 + 809 x49 + 750 x50
     + 955 x51 + 787 x52 + 930 x53 + 873 x54 + 260 x55 + 549 x56 + 45 x57
     + 903 x58 + 46 x59 + 722 x60 + 674 x61 + 563 x62 + 755 x63 + 370 x64
     + 472 x65 + 152 x66 + 138 x67 + 314 x68 + 449 x69 + 183 x70 <= 18854
Bounds
 0 <= x1 <= 1
 0 <= x2 <= 1
 0 <= x3 <= 1
 0 <= x4 <= 1
 0 <= x5 <= 1
 0 <= x6 <= 1
 0 <= x7 <= 1
 0 <= x8 <= 1
 0 <= x9 <= 1
 0 <= x10 <= 1
 0 <= x11 <= 1
 0 <= x12 <= 1
 0 <= x13 <= 1
 0 <= x14 <= 1
 0 <= x15 <= 1
 0 <= x16 <= 1
 0 <= x17 <= 1
 0 <= x18 <= 1
 0 <= x19 <= 1
 0 <= x20 <= 1
 0 <= x21 <= 1
 0 <= x22 <= 1
 0 <= x23 <= 1
 0 <= x24 <= 1
 0 <= x25 <= 1
 0 <= x26 <= 1
 0 <= x27 <= 1
 0 <= x28 <= 1
 0 <= x29 <= 1
 0 <= x30 <= 1
 0 <= x31 <= 1
 0 <= x32 <= 1
 0 <= x33 <= 1
 0 <= x34 <= 1
 0 <= x35 <= 1
 0 <= x36 <= 1
 0 <= x37 <= 1
 0 <= x38 <= 1
 0 <= x39 <= 1
 0 <= x40 <= 1
 0 <= x41 <= 1
 0 <= x42 <= 1
 0 <= x43 <= 1
 0 <= x44 <= 1
 0 <= x45 <= 1
 0 <= x46 <= 1
 0 <= x47 <= 1
 0 <= x48 <= 1
 0 <= x49 <= 1
 0 <= x50 <= 1
 0 <= x51 <= 1
 0 <= x52 <= 1
 0 <= x53 <= 1
 0 <= x54 <= 1
 0 <= x55 <= 1
 0 <= x56 <= 1
 0 <= x57 <= 1
 0 <= x58 <= 1
 0 <= x59 <= 1
 0 <= x60 <= 1
 0 <= x61 <= 1
 0 <= x62 <= 1
 0 <= x63 <= 1
 0 <= x64 <= 1
 0 <= x65 <= 1
 0 <= x66 <= 1
 0 <= x67 <= 1
 0 <= x68 <= 1
 0 <= x69 <= 1
 0 <= x70 <= 1
Binaries
 x1  x2  x3  x4  x5  x6  x7  x8  x9  x10  x11  x12  x13  x14  x15  x16  x17 
 x18  x19  x20  x21  x22  x23  x24  x25  x26  x27  x28  x29  x30  x31  x32 
 x33  x34  x35  x36  x37  x38  x39  x40  x41  x42  x43  x44  x45  x46  x47 
 x48  x49  x50  x51  x52  x53  x54  x55  x56  x57  x58  x59  x60  x61  x62 
 x63  x64  x65  x66  x67  x68  x69  x70 
End
